















































































9 31 
14 27 
30 63 
39 75 
2 68 47 
21 59 38 
1 32 
45 0 
44 20 
33 36 57 
10 46 
41 40 
51 7 
69 58 5 
52 54 
42 56 4 
11 50 
76 43 
37 73 72 
48 34 3 
55 66 18 
19 53 

25 22 
15 26 
71 65 
6 49 
17 74 12 
29 8 
60 23 
35 16 
61 28 
64 62 
70 67 
24 13 
